NAME          BLANK   
ROWS
 N  OBJROW
 G  R0000000
 G  R0000001
 G  R0000002
 G  R0000003
 G  R0000004
 G  R0000005
 G  R0000006
 G  R0000007
 G  R0000008
 G  R0000009
COLUMNS
    C0000000  OBJROW    45.            R0000001   -13.       
    C0000000  R0000003   -9.           R0000004   -36.       
    C0000000  R0000007   -50.          R0000009   -8.        
    C0000001  OBJROW    19.            R0000001   -22.       
    C0000001  R0000003   -19.          R0000008   -4.        
    C0000002  OBJROW    31.            R0000000   -28.       
    C0000002  R0000001   -29.          R0000002   -37.       
    C0000002  R0000003   -18.          R0000004   -5.        
    C0000002  R0000005   -5.           R0000007   -38.       
    C0000002  R0000009   -28.       
    C0000003  OBJROW    17.            R0000000   -30.       
    C0000003  R0000002   -47.          R0000003   -40.       
    C0000003  R0000004   -35.          R0000006   -43.       
    C0000003  R0000007   -3.        
    C0000004  OBJROW    13.            R0000000   -23.       
    C0000004  R0000001   -32.          R0000002   -13.       
    C0000004  R0000003   -42.          R0000006   -39.       
    C0000004  R0000009   -49.       
    C0000005  OBJROW    20.            R0000000   -27.       
    C0000005  R0000002   -17.          R0000003   -17.       
    C0000005  R0000006   -49.          R0000008   -1.        
    C0000005  R0000009   -46.       
    C0000006  OBJROW    39.            R0000002   -44.       
    C0000006  R0000003   -15.          R0000008   -8.        
    C0000006  R0000009   -46.       
    C0000007  OBJROW    19.            R0000000   -20.       
    C0000007  R0000001   -36.          R0000002   -6.        
    C0000007  R0000003   -48.          R0000004   -25.       
    C0000007  R0000006   -11.          R0000007   -30.       
    C0000007  R0000008   -17.       
    C0000008  OBJROW    9.             R0000001   -2.        
    C0000008  R0000002   -11.          R0000003   -11.       
    C0000008  R0000006   -20.          R0000007   -30.       
    C0000008  R0000008   -20.       
    C0000009  OBJROW    33.            R0000000   -12.       
    C0000009  R0000001   -36.          R0000002   -20.       
    C0000009  R0000003   -11.          R0000005   -41.       
    C0000009  R0000006   -33.          R0000008   -22.       
    C0000009  R0000009   -38.       
    C0000010  OBJROW    27.            R0000001   -30.       
    C0000010  R0000002   -35.          R0000003   -2.        
    C0000010  R0000005   -2.           R0000008   -44.       
    C0000010  R0000009   -32.       
    C0000011  OBJROW    20.            R0000001   -10.       
    C0000011  R0000003   -10.          R0000005   -48.       
    C0000011  R0000007   -13.          R0000008   -2.        
    C0000012  OBJROW    28.            R0000001   -3.        
    C0000012  R0000002   -7.           R0000003   -31.       
    C0000012  R0000004   -50.          R0000007   -1.        
    C0000012  R0000008   -21.          R0000009   -32.       
    C0000013  OBJROW    3.             R0000001   -3.        
    C0000013  R0000003   -25.          R0000006   -45.       
    C0000013  R0000007   -33.          R0000008   -34.       
    C0000014  OBJROW    26.            R0000002   -50.       
    C0000014  R0000003   -7.           R0000004   -40.       
    C0000014  R0000005   -43.          R0000006   -37.       
    C0000014  R0000007   -12.          R0000009   -8.        
    C0000015  OBJROW    44.            R0000001   -35.       
    C0000015  R0000002   -16.          R0000003   -42.       
    C0000015  R0000006   -32.          R0000007   -35.       
    C0000016  OBJROW    26.            R0000000   -3.        
    C0000016  R0000001   -38.          R0000002   -19.       
    C0000016  R0000003   -10.          R0000004   -5.        
    C0000016  R0000006   -43.          R0000007   -6.        
    C0000016  R0000008   -48.          R0000009   -46.       
    C0000017  OBJROW    2.             R0000001   -2.        
    C0000017  R0000003   -33.          R0000006   -28.       
    C0000017  R0000007   -32.          R0000009   -13.       
    C0000018  OBJROW    15.            R0000001   -16.       
    C0000018  R0000003   -7.           R0000004   -50.       
    C0000018  R0000005   -6.           R0000006   -1.        
    C0000018  R0000007   -23.          R0000008   -49.       
    C0000019  OBJROW    34.            R0000001   -48.       
    C0000019  R0000003   -34.          R0000004   -3.        
    C0000019  R0000007   -48.          R0000009   -3.        
    C0000020  OBJROW    12.            R0000001   -30.       
    C0000020  R0000003   -49.          R0000004   -6.        
    C0000020  R0000006   -5.           R0000007   -30.       
    C0000021  OBJROW    4.             R0000001   -6.        
    C0000021  R0000003   -47.          R0000005   -21.       
    C0000021  R0000006   -49.          R0000007   -3.        
    C0000022  OBJROW    4.             R0000000   -25.       
    C0000022  R0000001   -49.          R0000003   -25.       
    C0000022  R0000008   -22.          R0000009   -13.       
    C0000023  OBJROW    12.            R0000001   -30.       
    C0000023  R0000003   -25.          R0000004   -10.       
    C0000023  R0000006   -49.          R0000007   -28.       
    C0000023  R0000008   -29.          R0000009   -47.       
    C0000024  OBJROW    17.            R0000001   -42.       
    C0000024  R0000003   -11.          R0000005   -10.       
    C0000024  R0000008   -30.          R0000009   -8.        
    C0000025  OBJROW    25.            R0000001   -30.       
    C0000025  R0000003   -26.          R0000005   -29.       
    C0000026  OBJROW    12.            R0000001   -39.       
    C0000026  R0000003   -23.          R0000005   -43.       
    C0000026  R0000007   -27.          R0000008   -41.       
    C0000027  OBJROW    40.            R0000000   -18.       
    C0000027  R0000003   -21.          R0000004   -40.       
    C0000027  R0000008   -41.       
    C0000028  OBJROW    44.            R0000000   -13.       
    C0000028  R0000001   -23.          R0000002   -26.       
    C0000028  R0000003   -45.          R0000004   -3.        
    C0000028  R0000005   -47.          R0000008   -23.       
    C0000028  R0000009   -48.       
    C0000029  OBJROW    13.            R0000001   -13.       
    C0000029  R0000002   -27.          R0000003   -20.       
    C0000029  R0000004   -19.          R0000005   -10.       
    C0000029  R0000006   -43.          R0000007   -46.       
    C0000029  R0000008   -9.           R0000009   -50.       
RHS
    RHS       R0000000   -108.         R0000001   -525.      
    RHS       R0000002   -358.         R0000003   -634.      
    RHS       R0000004   -336.         R0000005   -302.      
    RHS       R0000006   -247.         R0000007   -504.      
    RHS       R0000008   -251.         R0000009   -280.      
BOUNDS
 UI BOUND     C0000000  1500.       
 UI BOUND     C0000001  1500.       
 UI BOUND     C0000002  1500.       
 UI BOUND     C0000003  1500.       
 UI BOUND     C0000004  1500.       
 UI BOUND     C0000005  1500.       
 UI BOUND     C0000006  1500.       
 UI BOUND     C0000007  1500.       
 UI BOUND     C0000008  1500.       
 UI BOUND     C0000009  1500.       
 UI BOUND     C0000010  1500.       
 UI BOUND     C0000011  1500.       
 UI BOUND     C0000012  1500.       
 UI BOUND     C0000013  1500.       
 UI BOUND     C0000014  1500.       
 UI BOUND     C0000015  1500.       
 UI BOUND     C0000016  1500.       
 UI BOUND     C0000017  1500.       
 UI BOUND     C0000018  1500.       
 UI BOUND     C0000019  1500.       
 UI BOUND     C0000020  1500.       
 UI BOUND     C0000021  1500.       
 UI BOUND     C0000022  1500.       
 UI BOUND     C0000023  1500.       
 UI BOUND     C0000024  1500.       
 UI BOUND     C0000025  1500.       
 UI BOUND     C0000026  1500.       
 UI BOUND     C0000027  1500.       
 UI BOUND     C0000028  1500.       
 UI BOUND     C0000029  1500.       
ENDATA
